NAME : n60w80.001.606.tour
COMMENT : Length = 606
COMMENT : Found by LKH [Keld Helsgaun] Tue Nov  7 19:35:18 2017
TYPE : TOUR
DIMENSION : 61
TOUR_SECTION
1
20
13
52
9
5
24
19
23
6
59
42
56
10
22
4
8
21
34
18
55
27
60
36
30
25
57
45
46
47
54
11
58
3
7
39
43
50
48
41
2
17
51
53
32
33
35
29
37
12
44
31
26
38
16
14
28
49
61
40
15
-1
EOF
